TYPE : Vertex Cover
DIMENSION: 33
EDGE_DATA_SECTION:
0 1
0 4
0 5
0 6
0 11
0 12
0 16
0 17
0 19
0 26
0 30
1 4
1 8
1 17
1 18
1 19
1 29
1 30
2 4
2 13
2 14
2 17
2 18
2 20
2 26
2 30
3 17
4 5
4 8
4 11
4 15
4 16
4 19
4 22
5 6
5 12
5 15
5 21
5 27
5 28
5 32
6 10
6 12
6 15
7 10
7 12
7 24
8 11
8 18
8 27
8 31
9 10
9 14
9 18
9 25
9 28
9 29
10 12
10 15
10 17
10 23
11 12
11 16
11 18
11 19
11 22
11 29
12 15
12 19
12 20
12 23
12 24
12 30
13 21
13 26
13 27
13 30
13 31
14 15
14 26
14 27
14 29
14 32
15 16
15 19
15 20
15 23
15 31
16 21
16 22
16 23
16 28
17 18
17 23
17 28
17 31
17 32
18 22
18 23
18 29
18 30
19 22
19 23
19 30
19 31
19 32
20 22
20 24
21 22
21 26
21 27
21 28
21 31
22 29
22 31
23 24
24 25
24 26
25 29
26 32
27 28
27 29
27 32
28 30
-1
VERTEX_DEGREE:
11.0 8.0 8.0 1.0 10.0 9.0 5.0 3.0 6.0 6.0 7.0 9.0 12.0 6.0 7.0 11.0 8.0 10.0 10.0 11.0 5.0 8.0 9.0 8.0 6.0 3.0 7.0 8.0 7.0 8.0 8.0 7.0 6.0
VERTEX_COVER:
0 2 4 5 8 9 10 12 13 14 15 16 17 18 19 21 22 24 26 27 29 30
EOF
